1
  t50_00
  90.0 50 15
35.0
28.0
34.0
40.0
27.0
29.0
38.0
30.0
31.0
45.0
26.0
27.0
43.0
26.0
28.0
35.0
27.0
34.0
42.0
26.0
28.0
41.0
26.0
27.0
39.0
26.0
30.0
40.0
28.0
29.0
40.0
28.0
29.0
38.0
27.0
31.0
34.0
28.0
35.0
33.0
28.0
35.0
44.0
27.0
28.0
34.0
30.0
34.0
37.0
26.0
